30
30
1
3
3600
550 754 765 850 851 983 994 1145 1153 1247 1372 1460 1462 1492 1548 1572 1672 1725 1758 1780 1929 1950 2053 2087 2115 2357 2599 2669 2899 2986 
24 11 34 21 17 38 6 16 37 27 10 23 34 11 29 40 35 17 12 12 17 30 34 34 27 30 24 27 15 19 
